DATASET = "thpack5";
INSTANCE = "052";

WIDTH = 233;
HEIGHT = 220;
LENGTH = 587;

NO_OF_SHAPES = 12;
size = [|
  96,72,31 |
  75,72,47 |
  80,25,20 |
  114,94,61 |
  100,40,39 |
  72,51,48 |
  36,28,24 |
  85,58,35 |
  85,84,58 |
  95,48,24 |
  115,70,25 |
  108,49,42 |
|];

verticality = [|
  0,0,1 |
  1,1,1 |
  0,1,1 |
  1,1,1 |
  0,1,1 |
  1,1,1 |
  1,1,1 |
  0,1,1 |
  1,1,1 |
  0,0,1 |
  0,0,1 |
  0,1,1 |
|];

box_count = [
  10,
  14,
  11,
  11,
  11,
  11,
  7,
  16,
  8,
  17,
  10,
  13,
];
